Route #1: 20 49 24 47 26 18 4 25
Route #2: 2 34 48 40 7 44
Route #3: 37 27 12 9 33 36 43 11 30 6
Route #4: 5 16
Route #5: 32 19 29 28 1
Route #6: 31 14 46 38 13 3
Route #7: 35 39 45 41 23 22
Route #8: 15 8 17 42 21 10
Cost 1316
Time 0.105738
